(declare-fun temp811_1 () (_ BitVec 64))
(declare-fun var66699 () (_ BitVec 64))
(declare-fun temp811_3 () (_ BitVec 64))
(declare-fun temp811_2 () (_ BitVec 64))
(declare-fun temp811_4 () (_ BitVec 64))
(declare-fun var398282 () (_ BitVec 64))
(declare-fun temp811_6 () (_ BitVec 64))
(declare-fun temp811_5 () (_ BitVec 64))
(declare-fun temp811_8 () (_ BitVec 64))
(declare-fun temp811_7 () (_ BitVec 64))
(declare-fun temp811_9 () (_ BitVec 64))
(declare-fun var1446858 () (_ BitVec 64))
(declare-fun var74105 () (_ BitVec 64))
(declare-fun var74107 () (_ BitVec 64))
(declare-fun temp811_11 () (_ BitVec 64))
(declare-fun temp811_10 () (_ BitVec 64))
(declare-fun temp811_12 () (_ BitVec 64))
(declare-fun var74393 () (_ BitVec 64))
(declare-fun var2958201 () (_ BitVec 64))
(declare-fun temp811_13 () (_ BitVec 64))
(declare-fun var2958205 () (_ BitVec 64))
(declare-fun var74406 () (_ BitVec 64))
(declare-fun temp811_14 () (_ BitVec 64))
(declare-fun var3548025 () (_ BitVec 64))
(declare-fun temp811_15 () (_ BitVec 64))
(declare-fun var3548029 () (_ BitVec 64))
(declare-fun temp811_16 () (_ BitVec 64))
(declare-fun var3548069 () (_ BitVec 64))
(declare-fun temp811_17 () (_ BitVec 64))
(declare-fun var74420 () (_ BitVec 64))
(declare-fun var74423 () (_ BitVec 64))
(assert (= temp811_1 #x0000000000000000))
(assert (= var66699 temp811_1))
(assert (= temp811_3 #x0000000000000000))
(assert (= temp811_2 temp811_3))
(assert (= temp811_4 #x0000000000000000))
(assert (= var398282 temp811_4))
(assert (= temp811_6 #x0000000000000000))
(assert (= temp811_5 temp811_6))
(assert (= temp811_8 #x0000000000000000))
(assert (= temp811_7 temp811_8))
(assert (= temp811_9 #x0000000000000000))
(assert (= var1446858 temp811_9))
(assert (= var74105 var66699))
(assert (= var74107 var66699))
(assert (= temp811_11 #x0000000000000002))
(assert (= temp811_10 temp811_11))
(assert (= temp811_12 #x0000000000000000))
(assert (= var66699 temp811_12))
(assert (= var74393 var66699))
(assert (= var2958201 var66699))
(assert (= temp811_13 #x0000000000000001))
(assert (= var2958205 temp811_13))
(assert (= var74406 var66699))
(assert (= temp811_14 #x0000000000000001))
(assert (= var3548025 temp811_14))
(assert (= temp811_15 #x0000000000000001))
(assert (= var3548029 temp811_15))
(assert (= temp811_16 #x0000000000000000))
(assert (= var3548069 temp811_16))
(assert (= temp811_17 #x0000000000000000))
(assert (= var3548069 temp811_17))
(assert (= var74420 var66699))
(assert (= var74423 var66699))
(model-add temp811_1 () (_ BitVec 64) #x0000000000000000)
(model-add var66699 () (_ BitVec 64) #x0000000000000000)
(model-add temp811_3 () (_ BitVec 64) #x0000000000000000)
(model-add temp811_2 () (_ BitVec 64) #x0000000000000000)
(model-add temp811_4 () (_ BitVec 64) #x0000000000000000)
(model-add var398282 () (_ BitVec 64) #x0000000000000000)
(model-add temp811_6 () (_ BitVec 64) #x0000000000000000)
(model-add temp811_5 () (_ BitVec 64) #x0000000000000000)
(model-add temp811_8 () (_ BitVec 64) #x0000000000000000)
(model-add temp811_7 () (_ BitVec 64) #x0000000000000000)
(model-add temp811_9 () (_ BitVec 64) #x0000000000000000)
(model-add var1446858 () (_ BitVec 64) #x0000000000000000)
(model-add var74105 () (_ BitVec 64) #x0000000000000000)
(model-add var74107 () (_ BitVec 64) #x0000000000000000)
(model-add temp811_11 () (_ BitVec 64) #x0000000000000002)
(model-add temp811_10 () (_ BitVec 64) #x0000000000000002)
(model-add temp811_12 () (_ BitVec 64) #x0000000000000000)
(model-add var74393 () (_ BitVec 64) #x0000000000000000)
(model-add var2958201 () (_ BitVec 64) #x0000000000000000)
(model-add temp811_13 () (_ BitVec 64) #x0000000000000001)
(model-add var2958205 () (_ BitVec 64) #x0000000000000001)
(model-add var74406 () (_ BitVec 64) #x0000000000000000)
(model-add temp811_14 () (_ BitVec 64) #x0000000000000001)
(model-add var3548025 () (_ BitVec 64) #x0000000000000001)
(model-add temp811_15 () (_ BitVec 64) #x0000000000000001)
(model-add var3548029 () (_ BitVec 64) #x0000000000000001)
(model-add temp811_16 () (_ BitVec 64) #x0000000000000000)
(model-add var3548069 () (_ BitVec 64) #x0000000000000000)
(model-add temp811_17 () (_ BitVec 64) #x0000000000000000)






